n_res = 4;
rcap = [23, 25, 112, 90];
rtype = [1, 1, 2, 2];
n_tasks = 18;
modes = [ {1, 2, 3}, {4, 5, 6}, {7, 8, 9}, {10, 11, 12}, {13, 14, 15}, {16, 17, 18}, {19, 20, 21}, {22, 23, 24}, {25, 26, 27}, {28, 29, 30}, {31, 32, 33}, {34, 35, 36}, {37, 38, 39}, {40, 41, 42}, {43, 44, 45}, {46, 47, 48}, {49, 50, 51}, {52, 53, 54} ];
succ = [ {4, 5, 6}, {13, 15, 17}, {7, 8, 11}, {9, 14}, {11, 13}, {11}, {9, 10, 18}, {9, 14, 18}, {15, 17}, {12}, {16, 17}, {14}, {16, 18}, {15}, {16}, {}, {}, {} ];
n_opt = 54;
dur = [4, 7, 9, 1, 7, 8, 3, 6, 10, 7, 7, 10, 2, 3, 8, 1, 10, 10, 7, 8, 9, 3, 6, 8, 6, 9, 9, 4, 4, 5, 4, 7, 8, 1, 3, 7, 2, 5, 10, 1, 2, 9, 4, 7, 9, 5, 8, 10, 1, 4, 10, 6, 7, 9];
rreq = [|  0,  0,  4,  0,  0,  0,  9,  0,  9,  0,  7,  4,  5,  3,  0,  6,  4,  4, 10,  8,  0,  0, 10,  8,  0,  4,  0,  0,  5,  0,  0,  0,  0,  0, 10,  8, 10,  9,  8,  8,  0,  6,  0,  8,  5,  6,  4,  1,  0,  8,  0,  0,  0,  8
        |  5,  5,  0,  8,  8,  8,  0,  3,  0,  1,  0,  0,  0,  0,  1,  0,  0,  0,  0,  0,  3,  9,  0,  0,  8,  0,  6,  9,  0,  9,  6,  4,  2,  1,  0,  0,  0,  0,  0,  0,  3,  0,  2,  0,  0,  0,  0,  0,  5,  0,  4,  8,  7,  0
        |  7,  6,  1,  8,  6,  4,  6,  3,  2,  0,  0,  1,  6,  5,  0,  0,  0,  8,  0,  8,  3,  4,  0,  0,  0,  0,  0,  8,  0,  0,  0,  8,  7,  9,  9,  0,  4,  2,  0,  0,  0,  5,  0,  9,  8,  0,  0,  7,  7,  0,  0,  7,  0,  4
        |  0,  0,  0,  0,  0,  0,  0,  0,  0,  1,  5,  0,  0,  0,  9,  5,  4,  0,  8,  0,  0,  0,  8,  8,  2,  1,  1,  0,  8,  4,  3,  0,  0,  0,  0,  8,  0,  0,  1,  7,  7,  0,  9,  0,  0,  4,  3,  0,  0,  8,  5,  0,  5,  0 |];
